\ENCODING=ISO-8859-1
\Problem name: IloCplex

Minimize
 obj: x3 + x6 + x9 + x12 + x15 + x18 + x21 + x24 + x27 + x30 + x33 + x36 + x39
      + x42 + x45 + x48 + x51 + x54 + x57 + x60
Subject To
 c1:   - x1 + x3  = 0
 c2:   - x4 + x6  = 0
 c3:   - x7 + x9  = 0
 c4:   - x10 + x12  = 0
 c5:   - x13 + x15  = 0
 c6:   - x16 + x18  = 0
 c7:   - x19 + x21  = 0
 c8:   - x22 + x24  = 0
 c9:   - x25 + x27  = 0
 c10:  - x28 + x30  = 0
 c11:  - x31 + x33  = 0
 c12:  - x34 + x36  = 0
 c13:  - x37 + x39  = 0
 c14:  - x40 + x42  = 0
 c15:  - x43 + x45  = 0
 c16:  - x46 + x48  = 0
 c17:  - x49 + x51  = 0
 c18:  - x52 + x54  = 0
 c19:  - x55 + x57  = 0
 c20:  - x58 + x60  = 0
 c21:  x61 + x62 <= 1
 c22:  x63 + x64 <= 1
 c23:  x65 + x66 <= 1
 c24:  x67 + x68 <= 1
 c25:  x69 + x70 <= 1
 c26:  x71 + x72 <= 1
 c27:  x73 + x74 <= 1
 c28:  x75 + x76 <= 1
 c29:  x77 + x78 <= 1
 c30:  x79 + x80 <= 1
 c31:  x81 + x82 <= 1
 c32:  x83 + x84 <= 1
 c33:  x85 + x86 <= 1
 c34:  x87 + x88 <= 1
 c35:  x89 + x90 <= 1
 c36:  x91 + x92 <= 1
 c37:  x93 + x94 <= 1
 c38:  x95 + x96 <= 1
 c39:  x97 + x98 <= 1
 c40:  x99 + x100 <= 1
 c41:  x101 + x102 <= 1
 c42:  x103 + x104 <= 1
 c43:  x105 + x106 <= 1
 c44:  x107 + x108 <= 1
 c45:  x109 + x110 <= 1
 c46:  x111 + x112 <= 1
 c47:  x113 + x114 <= 1
 c48:  x115 + x116 <= 1
 c49:  x117 + x118 <= 1
 c50:  x119 + x120 <= 1
 c51:  x121 + x122 <= 1
 c52:  x123 + x124 <= 1
 c53:  x125 + x126 <= 1
 c54:  x127 + x128 <= 1
 c55:  x129 + x130 <= 1
 c56:  x131 + x132 <= 1
 c57:  x133 + x134 <= 1
 c58:  x135 + x136 <= 1
 c59:  x137 + x138 <= 1
 c60:  x139 + x140 <= 1
 c61:  x141 + x142 <= 1
 c62:  x143 + x144 <= 1
 c63:  x145 + x146 <= 1
 c64:  x147 + x148 <= 1
 c65:  x149 + x150 <= 1
 c66:  x151 + x152 <= 1
 c67:  x153 + x154 <= 1
 c68:  x155 + x156 <= 1
 c69:  x157 + x158 <= 1
 c70:  x159 + x160 <= 1
 c71:  x161 + x162 <= 1
 c72:  x163 + x164 <= 1
 c73:  x165 + x166 <= 1
 c74:  x167 + x168 <= 1
 c75:  x169 + x170 <= 1
 c76:  x171 + x172 <= 1
 c77:  x173 + x174 <= 1
 c78:  x175 + x176 <= 1
 c79:  x177 + x178 <= 1
 c80:  x179 + x180 <= 1
 c81:  x61 + x62 + x63 + x64 + x65 + x66 + x67 + x68 + x69 + x70 + x71 + x72
       + x73 + x74 + x75 + x76 + x77 + x78 + x79 + x80 + x81 + x82 + x83 + x84
       + x85 + x86 + x87 + x88 + x89 + x90 + x91 + x92 + x93 + x94 + x95 + x96
       + x97 + x98 + x99 + x100  = 13
 c82:  x101 + x102 + x103 + x104 + x105 + x106 + x107 + x108 + x109 + x110
       + x111 + x112 + x113 + x114 + x115 + x116 + x117 + x118 + x119 + x120
       + x121 + x122 + x123 + x124 + x125 + x126 + x127 + x128 + x129 + x130
       + x131 + x132 + x133 + x134 + x135 + x136 + x137 + x138 + x139 + x140
        = 16
 c83:  x141 + x142 + x143 + x144 + x145 + x146 + x147 + x148 + x149 + x150
       + x151 + x152 + x153 + x154 + x155 + x156 + x157 + x158 + x159 + x160
       + x161 + x162 + x163 + x164 + x165 + x166 + x167 + x168 + x169 + x170
       + x171 + x172 + x173 + x174 + x175 + x176 + x177 + x178 + x179 + x180
        = 11
 c84:  x61 + x62 + x63 + x64 + x65 + x66 + x67 + x68 + x69 + x70 + x71 + x72
       + x99 + x100  = 0
 c85:  x101 + x102 + x103 + x104 + x105 + x106  = 0
 c86:  x141 + x142 + x143 + x144 + x145 + x146 + x147 + x148 + x175 + x176
       + x177 + x178 + x179 + x180  = 0
 c87:  2071 x61 + 1693 x101 + 1683 x141 <= 100000
 c88:  2071 x63 + 1693 x103 + 1683 x143 <= 100000
 c89:  2071 x65 + 1693 x105 + 1683 x145 <= 100000
 c90:  2071 x67 + 1693 x107 + 1683 x147 <= 100000
 c91:  2071 x69 + 1693 x109 + 1683 x149 <= 100000
 c92:  2071 x71 + 1693 x111 + 1683 x151 <= 100000
 c93:  2071 x73 + 1693 x113 + 1683 x153 <= 100000
 c94:  2071 x75 + 1693 x115 + 1683 x155 <= 100000
 c95:  2071 x77 + 1693 x117 + 1683 x157 <= 100000
 c96:  2071 x79 + 1693 x119 + 1683 x159 <= 100000
 c97:  2071 x81 + 1693 x121 + 1683 x161 <= 100000
 c98:  2071 x83 + 1693 x123 + 1683 x163 <= 100000
 c99:  2071 x85 + 1693 x125 + 1683 x165 <= 100000
 c100: 2071 x87 + 1693 x127 + 1683 x167 <= 100000
 c101: 2071 x89 + 1693 x129 + 1683 x169 <= 100000
 c102: 2071 x91 + 1693 x131 + 1683 x171 <= 100000
 c103: 2071 x93 + 1693 x133 + 1683 x173 <= 100000
 c104: 2071 x95 + 1693 x135 + 1683 x175 <= 100000
 c105: 2071 x97 + 1693 x137 + 1683 x177 <= 100000
 c106: 2071 x99 + 1693 x139 + 1683 x179 <= 100000
 c107: 3 x61 + 2 x101 + 2 x141 <= 50
 c108: 3 x63 + 2 x103 + 2 x143 <= 50
 c109: 3 x65 + 2 x105 + 2 x145 <= 50
 c110: 3 x67 + 2 x107 + 2 x147 <= 50
 c111: 3 x69 + 2 x109 + 2 x149 <= 50
 c112: 3 x71 + 2 x111 + 2 x151 <= 50
 c113: 3 x73 + 2 x113 + 2 x153 <= 50
 c114: 3 x75 + 2 x115 + 2 x155 <= 50
 c115: 3 x77 + 2 x117 + 2 x157 <= 50
 c116: 3 x79 + 2 x119 + 2 x159 <= 50
 c117: 3 x81 + 2 x121 + 2 x161 <= 50
 c118: 3 x83 + 2 x123 + 2 x163 <= 50
 c119: 3 x85 + 2 x125 + 2 x165 <= 50
 c120: 3 x87 + 2 x127 + 2 x167 <= 50
 c121: 3 x89 + 2 x129 + 2 x169 <= 50
 c122: 3 x91 + 2 x131 + 2 x171 <= 50
 c123: 3 x93 + 2 x133 + 2 x173 <= 50
 c124: 3 x95 + 2 x135 + 2 x175 <= 50
 c125: 3 x97 + 2 x137 + 2 x177 <= 50
 c126: 3 x99 + 2 x139 + 2 x179 <= 50
 c127: 2071 x62 + 1693 x102 + 1683 x142 <= 100000
 c128: 2071 x64 + 1693 x104 + 1683 x144 <= 100000
 c129: 2071 x66 + 1693 x106 + 1683 x146 <= 100000
 c130: 2071 x68 + 1693 x108 + 1683 x148 <= 100000
 c131: 2071 x70 + 1693 x110 + 1683 x150 <= 100000
 c132: 2071 x72 + 1693 x112 + 1683 x152 <= 100000
 c133: 2071 x74 + 1693 x114 + 1683 x154 <= 100000
 c134: 2071 x76 + 1693 x116 + 1683 x156 <= 100000
 c135: 2071 x78 + 1693 x118 + 1683 x158 <= 100000
 c136: 2071 x80 + 1693 x120 + 1683 x160 <= 100000
 c137: 2071 x82 + 1693 x122 + 1683 x162 <= 100000
 c138: 2071 x84 + 1693 x124 + 1683 x164 <= 100000
 c139: 2071 x86 + 1693 x126 + 1683 x166 <= 100000
 c140: 2071 x88 + 1693 x128 + 1683 x168 <= 100000
 c141: 2071 x90 + 1693 x130 + 1683 x170 <= 100000
 c142: 2071 x92 + 1693 x132 + 1683 x172 <= 100000
 c143: 2071 x94 + 1693 x134 + 1683 x174 <= 100000
 c144: 2071 x96 + 1693 x136 + 1683 x176 <= 100000
 c145: 2071 x98 + 1693 x138 + 1683 x178 <= 100000
 c146: 2071 x100 + 1693 x140 + 1683 x180 <= 100000
 c147: 3 x62 + 2 x102 + 2 x142 <= 50
 c148: 3 x64 + 2 x104 + 2 x144 <= 50
 c149: 3 x66 + 2 x106 + 2 x146 <= 50
 c150: 3 x68 + 2 x108 + 2 x148 <= 50
 c151: 3 x70 + 2 x110 + 2 x150 <= 50
 c152: 3 x72 + 2 x112 + 2 x152 <= 50
 c153: 3 x74 + 2 x114 + 2 x154 <= 50
 c154: 3 x76 + 2 x116 + 2 x156 <= 50
 c155: 3 x78 + 2 x118 + 2 x158 <= 50
 c156: 3 x80 + 2 x120 + 2 x160 <= 50
 c157: 3 x82 + 2 x122 + 2 x162 <= 50
 c158: 3 x84 + 2 x124 + 2 x164 <= 50
 c159: 3 x86 + 2 x126 + 2 x166 <= 50
 c160: 3 x88 + 2 x128 + 2 x168 <= 50
 c161: 3 x90 + 2 x130 + 2 x170 <= 50
 c162: 3 x92 + 2 x132 + 2 x172 <= 50
 c163: 3 x94 + 2 x134 + 2 x174 <= 50
 c164: 3 x96 + 2 x136 + 2 x176 <= 50
 c165: 3 x98 + 2 x138 + 2 x178 <= 50
 c166: 3 x100 + 2 x140 + 2 x180 <= 50
 c167: - x61 + x181 >= 0
 c168: - x63 + x182 >= 0
 c169: - x65 + x183 >= 0
 c170: - x67 + x184 >= 0
 c171: - x69 + x185 >= 0
 c172: - x71 + x186 >= 0
 c173: - x73 + x187 >= 0
 c174: - x75 + x188 >= 0
 c175: - x77 + x189 >= 0
 c176: - x79 + x190 >= 0
 c177: - x81 + x191 >= 0
 c178: - x83 + x192 >= 0
 c179: - x85 + x193 >= 0
 c180: - x87 + x194 >= 0
 c181: - x89 + x195 >= 0
 c182: - x91 + x196 >= 0
 c183: - x93 + x197 >= 0
 c184: - x95 + x198 >= 0
 c185: - x97 + x199 >= 0
 c186: - x99 + x200 >= 0
 c187: - x101 + x181 >= 0
 c188: - x103 + x182 >= 0
 c189: - x105 + x183 >= 0
 c190: - x107 + x184 >= 0
 c191: - x109 + x185 >= 0
 c192: - x111 + x186 >= 0
 c193: - x113 + x187 >= 0
 c194: - x115 + x188 >= 0
 c195: - x117 + x189 >= 0
 c196: - x119 + x190 >= 0
 c197: - x121 + x191 >= 0
 c198: - x123 + x192 >= 0
 c199: - x125 + x193 >= 0
 c200: - x127 + x194 >= 0
 c201: - x129 + x195 >= 0
 c202: - x131 + x196 >= 0
 c203: - x133 + x197 >= 0
 c204: - x135 + x198 >= 0
 c205: - x137 + x199 >= 0
 c206: - x139 + x200 >= 0
 c207: - x141 + x181 >= 0
 c208: - x143 + x182 >= 0
 c209: - x145 + x183 >= 0
 c210: - x147 + x184 >= 0
 c211: - x149 + x185 >= 0
 c212: - x151 + x186 >= 0
 c213: - x153 + x187 >= 0
 c214: - x155 + x188 >= 0
 c215: - x157 + x189 >= 0
 c216: - x159 + x190 >= 0
 c217: - x161 + x191 >= 0
 c218: - x163 + x192 >= 0
 c219: - x165 + x193 >= 0
 c220: - x167 + x194 >= 0
 c221: - x169 + x195 >= 0
 c222: - x171 + x196 >= 0
 c223: - x173 + x197 >= 0
 c224: - x175 + x198 >= 0
 c225: - x177 + x199 >= 0
 c226: - x179 + x200 >= 0
 c227: - x62 + x201 >= 0
 c228: - x64 + x202 >= 0
 c229: - x66 + x203 >= 0
 c230: - x68 + x204 >= 0
 c231: - x70 + x205 >= 0
 c232: - x72 + x206 >= 0
 c233: - x74 + x207 >= 0
 c234: - x76 + x208 >= 0
 c235: - x78 + x209 >= 0
 c236: - x80 + x210 >= 0
 c237: - x82 + x211 >= 0
 c238: - x84 + x212 >= 0
 c239: - x86 + x213 >= 0
 c240: - x88 + x214 >= 0
 c241: - x90 + x215 >= 0
 c242: - x92 + x216 >= 0
 c243: - x94 + x217 >= 0
 c244: - x96 + x218 >= 0
 c245: - x98 + x219 >= 0
 c246: - x100 + x220 >= 0
 c247: - x102 + x201 >= 0
 c248: - x104 + x202 >= 0
 c249: - x106 + x203 >= 0
 c250: - x108 + x204 >= 0
 c251: - x110 + x205 >= 0
 c252: - x112 + x206 >= 0
 c253: - x114 + x207 >= 0
 c254: - x116 + x208 >= 0
 c255: - x118 + x209 >= 0
 c256: - x120 + x210 >= 0
 c257: - x122 + x211 >= 0
 c258: - x124 + x212 >= 0
 c259: - x126 + x213 >= 0
 c260: - x128 + x214 >= 0
 c261: - x130 + x215 >= 0
 c262: - x132 + x216 >= 0
 c263: - x134 + x217 >= 0
 c264: - x136 + x218 >= 0
 c265: - x138 + x219 >= 0
 c266: - x140 + x220 >= 0
 c267: - x142 + x201 >= 0
 c268: - x144 + x202 >= 0
 c269: - x146 + x203 >= 0
 c270: - x148 + x204 >= 0
 c271: - x150 + x205 >= 0
 c272: - x152 + x206 >= 0
 c273: - x154 + x207 >= 0
 c274: - x156 + x208 >= 0
 c275: - x158 + x209 >= 0
 c276: - x160 + x210 >= 0
 c277: - x162 + x211 >= 0
 c278: - x164 + x212 >= 0
 c279: - x166 + x213 >= 0
 c280: - x168 + x214 >= 0
 c281: - x170 + x215 >= 0
 c282: - x172 + x216 >= 0
 c283: - x174 + x217 >= 0
 c284: - x176 + x218 >= 0
 c285: - x178 + x219 >= 0
 c286: - x180 + x220 >= 0
 c287: x2 - 789.525024414062 x61 - 789.525024414062 x62 - 1504.61999511719 x101
       - 1504.61999511719 x102 - 1257.2900390625 x141 - 1257.2900390625 x142
       - 10 x181 - 15 x201  = 0
 c288: x5 - 789.525024414062 x63 - 789.525024414062 x64 - 1504.61999511719 x103
       - 1504.61999511719 x104 - 1257.2900390625 x143 - 1257.2900390625 x144
       - 10 x182 - 15 x202  = 0
 c289: x8 - 789.525024414062 x65 - 789.525024414062 x66 - 1504.61999511719 x105
       - 1504.61999511719 x106 - 1257.2900390625 x145 - 1257.2900390625 x146
       - 10 x183 - 15 x203  = 0
 c290: x11 - 789.525024414062 x67 - 789.525024414062 x68
       - 1504.61999511719 x107 - 1504.61999511719 x108 - 1257.2900390625 x147
       - 1257.2900390625 x148 - 10 x184 - 15 x204  = 0
 c291: x14 - 789.525024414062 x69 - 789.525024414062 x70
       - 1504.61999511719 x109 - 1504.61999511719 x110 - 1257.2900390625 x149
       - 1257.2900390625 x150 - 10 x185 - 15 x205  = 0
 c292: x17 - 789.525024414062 x71 - 789.525024414062 x72
       - 1504.61999511719 x111 - 1504.61999511719 x112 - 1257.2900390625 x151
       - 1257.2900390625 x152 - 10 x186 - 15 x206  = 0
 c293: x20 - 789.525024414062 x73 - 789.525024414062 x74
       - 1504.61999511719 x113 - 1504.61999511719 x114 - 1257.2900390625 x153
       - 1257.2900390625 x154 - 10 x187 - 15 x207  = 0
 c294: x23 - 789.525024414062 x75 - 789.525024414062 x76
       - 1504.61999511719 x115 - 1504.61999511719 x116 - 1257.2900390625 x155
       - 1257.2900390625 x156 - 10 x188 - 15 x208  = 0
 c295: x26 - 789.525024414062 x77 - 789.525024414062 x78
       - 1504.61999511719 x117 - 1504.61999511719 x118 - 1257.2900390625 x157
       - 1257.2900390625 x158 - 10 x189 - 15 x209  = 0
 c296: x29 - 789.525024414062 x79 - 789.525024414062 x80
       - 1504.61999511719 x119 - 1504.61999511719 x120 - 1257.2900390625 x159
       - 1257.2900390625 x160 - 10 x190 - 15 x210  = 0
 c297: x32 - 789.525024414062 x81 - 789.525024414062 x82
       - 1504.61999511719 x121 - 1504.61999511719 x122 - 1257.2900390625 x161
       - 1257.2900390625 x162 - 10 x191 - 15 x211  = 0
 c298: x35 - 789.525024414062 x83 - 789.525024414062 x84
       - 1504.61999511719 x123 - 1504.61999511719 x124 - 1257.2900390625 x163
       - 1257.2900390625 x164 - 10 x192 - 15 x212  = 0
 c299: x38 - 789.525024414062 x85 - 789.525024414062 x86
       - 1504.61999511719 x125 - 1504.61999511719 x126 - 1257.2900390625 x165
       - 1257.2900390625 x166 - 10 x193 - 15 x213  = 0
 c300: x41 - 789.525024414062 x87 - 789.525024414062 x88
       - 1504.61999511719 x127 - 1504.61999511719 x128 - 1257.2900390625 x167
       - 1257.2900390625 x168 - 10 x194 - 15 x214  = 0
 c301: x44 - 789.525024414062 x89 - 789.525024414062 x90
       - 1504.61999511719 x129 - 1504.61999511719 x130 - 1257.2900390625 x169
       - 1257.2900390625 x170 - 10 x195 - 15 x215  = 0
 c302: x47 - 789.525024414062 x91 - 789.525024414062 x92
       - 1504.61999511719 x131 - 1504.61999511719 x132 - 1257.2900390625 x171
       - 1257.2900390625 x172 - 10 x196 - 15 x216  = 0
 c303: x50 - 789.525024414062 x93 - 789.525024414062 x94
       - 1504.61999511719 x133 - 1504.61999511719 x134 - 1257.2900390625 x173
       - 1257.2900390625 x174 - 10 x197 - 15 x217  = 0
 c304: x53 - 789.525024414062 x95 - 789.525024414062 x96
       - 1504.61999511719 x135 - 1504.61999511719 x136 - 1257.2900390625 x175
       - 1257.2900390625 x176 - 10 x198 - 15 x218  = 0
 c305: x56 - 789.525024414062 x97 - 789.525024414062 x98
       - 1504.61999511719 x137 - 1504.61999511719 x138 - 1257.2900390625 x177
       - 1257.2900390625 x178 - 10 x199 - 15 x219  = 0
 c306: x59 - 789.525024414062 x99 - 789.525024414062 x100
       - 1504.61999511719 x139 - 1504.61999511719 x140 - 1257.2900390625 x179
       - 1257.2900390625 x180 - 10 x200 - 15 x220  = 0
Bounds
      x1 Free
      x4 Free
      x7 Free
      x10 Free
      x13 Free
      x16 Free
      x19 Free
      x22 Free
      x25 Free
      x28 Free
      x31 Free
      x34 Free
      x37 Free
      x40 Free
      x43 Free
      x46 Free
      x49 Free
      x52 Free
      x55 Free
      x58 Free
 0 <= x61 <= 1
 0 <= x62 <= 1
 0 <= x63 <= 1
 0 <= x64 <= 1
 0 <= x65 <= 1
 0 <= x66 <= 1
 0 <= x67 <= 1
 0 <= x68 <= 1
 0 <= x69 <= 1
 0 <= x70 <= 1
 0 <= x71 <= 1
 0 <= x72 <= 1
 0 <= x73 <= 1
 0 <= x74 <= 1
 0 <= x75 <= 1
 0 <= x76 <= 1
 0 <= x77 <= 1
 0 <= x78 <= 1
 0 <= x79 <= 1
 0 <= x80 <= 1
 0 <= x81 <= 1
 0 <= x82 <= 1
 0 <= x83 <= 1
 0 <= x84 <= 1
 0 <= x85 <= 1
 0 <= x86 <= 1
 0 <= x87 <= 1
 0 <= x88 <= 1
 0 <= x89 <= 1
 0 <= x90 <= 1
 0 <= x91 <= 1
 0 <= x92 <= 1
 0 <= x93 <= 1
 0 <= x94 <= 1
 0 <= x95 <= 1
 0 <= x96 <= 1
 0 <= x97 <= 1
 0 <= x98 <= 1
 0 <= x99 <= 1
 0 <= x100 <= 1
 0 <= x101 <= 1
 0 <= x102 <= 1
 0 <= x103 <= 1
 0 <= x104 <= 1
 0 <= x105 <= 1
 0 <= x106 <= 1
 0 <= x107 <= 1
 0 <= x108 <= 1
 0 <= x109 <= 1
 0 <= x110 <= 1
 0 <= x111 <= 1
 0 <= x112 <= 1
 0 <= x113 <= 1
 0 <= x114 <= 1
 0 <= x115 <= 1
 0 <= x116 <= 1
 0 <= x117 <= 1
 0 <= x118 <= 1
 0 <= x119 <= 1
 0 <= x120 <= 1
 0 <= x121 <= 1
 0 <= x122 <= 1
 0 <= x123 <= 1
 0 <= x124 <= 1
 0 <= x125 <= 1
 0 <= x126 <= 1
 0 <= x127 <= 1
 0 <= x128 <= 1
 0 <= x129 <= 1
 0 <= x130 <= 1
 0 <= x131 <= 1
 0 <= x132 <= 1
 0 <= x133 <= 1
 0 <= x134 <= 1
 0 <= x135 <= 1
 0 <= x136 <= 1
 0 <= x137 <= 1
 0 <= x138 <= 1
 0 <= x139 <= 1
 0 <= x140 <= 1
 0 <= x141 <= 1
 0 <= x142 <= 1
 0 <= x143 <= 1
 0 <= x144 <= 1
 0 <= x145 <= 1
 0 <= x146 <= 1
 0 <= x147 <= 1
 0 <= x148 <= 1
 0 <= x149 <= 1
 0 <= x150 <= 1
 0 <= x151 <= 1
 0 <= x152 <= 1
 0 <= x153 <= 1
 0 <= x154 <= 1
 0 <= x155 <= 1
 0 <= x156 <= 1
 0 <= x157 <= 1
 0 <= x158 <= 1
 0 <= x159 <= 1
 0 <= x160 <= 1
 0 <= x161 <= 1
 0 <= x162 <= 1
 0 <= x163 <= 1
 0 <= x164 <= 1
 0 <= x165 <= 1
 0 <= x166 <= 1
 0 <= x167 <= 1
 0 <= x168 <= 1
 0 <= x169 <= 1
 0 <= x170 <= 1
 0 <= x171 <= 1
 0 <= x172 <= 1
 0 <= x173 <= 1
 0 <= x174 <= 1
 0 <= x175 <= 1
 0 <= x176 <= 1
 0 <= x177 <= 1
 0 <= x178 <= 1
 0 <= x179 <= 1
 0 <= x180 <= 1
 0 <= x181 <= 1
 0 <= x182 <= 1
 0 <= x183 <= 1
 0 <= x184 <= 1
 0 <= x185 <= 1
 0 <= x186 <= 1
 0 <= x187 <= 1
 0 <= x188 <= 1
 0 <= x189 <= 1
 0 <= x190 <= 1
 0 <= x191 <= 1
 0 <= x192 <= 1
 0 <= x193 <= 1
 0 <= x194 <= 1
 0 <= x195 <= 1
 0 <= x196 <= 1
 0 <= x197 <= 1
 0 <= x198 <= 1
 0 <= x199 <= 1
 0 <= x200 <= 1
 0 <= x201 <= 1
 0 <= x202 <= 1
 0 <= x203 <= 1
 0 <= x204 <= 1
 0 <= x205 <= 1
 0 <= x206 <= 1
 0 <= x207 <= 1
 0 <= x208 <= 1
 0 <= x209 <= 1
 0 <= x210 <= 1
 0 <= x211 <= 1
 0 <= x212 <= 1
 0 <= x213 <= 1
 0 <= x214 <= 1
 0 <= x215 <= 1
 0 <= x216 <= 1
 0 <= x217 <= 1
 0 <= x218 <= 1
 0 <= x219 <= 1
 0 <= x220 <= 1
Binaries
 x61  x62  x63  x64  x65  x66  x67  x68  x69  x70  x71  x72  x73  x74  x75 
 x76  x77  x78  x79  x80  x81  x82  x83  x84  x85  x86  x87  x88  x89  x90 
 x91  x92  x93  x94  x95  x96  x97  x98  x99  x100  x101  x102  x103  x104 
 x105  x106  x107  x108  x109  x110  x111  x112  x113  x114  x115  x116  x117 
 x118  x119  x120  x121  x122  x123  x124  x125  x126  x127  x128  x129  x130 
 x131  x132  x133  x134  x135  x136  x137  x138  x139  x140  x141  x142  x143 
 x144  x145  x146  x147  x148  x149  x150  x151  x152  x153  x154  x155  x156 
 x157  x158  x159  x160  x161  x162  x163  x164  x165  x166  x167  x168  x169 
 x170  x171  x172  x173  x174  x175  x176  x177  x178  x179  x180  x181  x182 
 x183  x184  x185  x186  x187  x188  x189  x190  x191  x192  x193  x194  x195 
 x196  x197  x198  x199  x200  x201  x202  x203  x204  x205  x206  x207  x208 
 x209  x210  x211  x212  x213  x214  x215  x216  x217  x218  x219  x220 
Pwl
 p1:  x1 = x2 0 (500, 0) (1000, 250) (1500, 2349.99990463257)
      (2000, 2949.99992847443) 0.800000011920929
 p2:  x4 = x5 0.5 (500, 250) (1000, 2349.99990463257) (1500, 2949.99992847443)
      0.800000011920929
 p3:  x7 = x8 0 (500, 0) (1000, 250) (1500, 2349.99990463257)
      (2000, 2949.99992847443) 0.800000011920929
 p4:  x10 = x11 0.5 (-500, 250) (0, 2349.99990463257) (500, 2949.99992847443)
      0.800000011920929
 p5:  x13 = x14 0.5 (500, 250) (1000, 2349.99990463257)
      (1500, 2949.99992847443) 0.800000011920929
 p6:  x16 = x17 0 (500, 0) (1000, 250) (1500, 2349.99990463257)
      (2000, 2949.99992847443) 0.800000011920929
 p7:  x19 = x20 0.5 (0, 250) (500, 2349.99990463257) (1000, 2949.99992847443)
      0.800000011920929
 p8:  x22 = x23 0.5 (500, 250) (1000, 2349.99990463257)
      (1500, 2949.99992847443) 0.800000011920929
 p9:  x25 = x26 0.5 (500, 250) (1000, 2349.99990463257)
      (1500, 2949.99992847443) 0.800000011920929
 p10: x28 = x29 0.5 (500, 250) (1000, 2349.99990463257)
      (1500, 2949.99992847443) 0.800000011920929
 p11: x31 = x32 0.5 (500, 250) (1000, 2349.99990463257)
      (1500, 2949.99992847443) 0.800000011920929
 p12: x34 = x35 0.5 (500, 250) (1000, 2349.99990463257)
      (1500, 2949.99992847443) 0.800000011920929
 p13: x37 = x38 0.5 (500, 250) (1000, 2349.99990463257)
      (1500, 2949.99992847443) 0.800000011920929
 p14: x40 = x41 0.5 (500, 250) (1000, 2349.99990463257)
      (1500, 2949.99992847443) 0.800000011920929
 p15: x43 = x44 0.5 (500, 250) (1000, 2349.99990463257)
      (1500, 2949.99992847443) 0.800000011920929
 p16: x46 = x47 0 (1000, 0) (1500, 250) (2000, 2349.99990463257)
      (2500, 2949.99992847443) 0.800000011920929
 p17: x49 = x50 0.5 (-500, 250) (0, 2349.99990463257) (500, 2949.99992847443)
      0.800000011920929
 p18: x52 = x53 0.5 (500, 250) (1000, 2349.99990463257)
      (1500, 2949.99992847443) 0.800000011920929
 p19: x55 = x56 0 (1000, 0) (1500, 250) (2000, 2349.99990463257)
      (2500, 2949.99992847443) 0.800000011920929
 p20: x58 = x59 0.5 (-500, 250) (0, 2349.99990463257) (500, 2949.99992847443)
      0.800000011920929
End
